decision_x1=[0,7];
decision_x2=[0,7];
decision_x3=[0,7];
decision_x4=[0,7];
decision_x5=[0,7];
decision_x6=[0,7];
decision_x7=[0,7];
decision_x8=[0,7];
decision_x9=[0,7];
decision_x10=[0,7];
decision_x11=[0,7];
decision_x12=[0,7];
decision_x13=[0,7];
decision_x14=[0,7];
decision_x15=[0,7];
decision_x16=[0,7];
decision_x17=[0,7];
decision_x18=[0,7];
random_y1=[0,7];
random_y2=[0,7];
random_y3=[0,7];
random_y4=[0,7];
random_y5=[0,7];
random_y6=[0,7];
random_y7=[0,7];
random_y8=[0,7];
constraint_x2_x1=[
0,0,7.8|
0,1,4|
0,2,5.5|
0,3,1.4|
0,4,3.8|
0,5,0.8|
0,6,0.61|
0,7,6.7|
1,0,4.8|
1,1,9.1|
1,2,7.5|
1,3,9|
1,4,7|
1,5,5.8|
1,6,9.2|
1,7,2|
2,0,7.2|
2,1,5.2|
2,2,4.8|
2,3,0.37|
2,4,8.4|
2,5,0.36|
2,6,3.9|
2,7,7.1|
3,0,0.55|
3,1,8.8|
3,2,4.4|
3,3,4.4|
3,4,2.9|
3,5,2|
3,6,8.4|
3,7,1.2|
4,0,8.8|
4,1,3.3|
4,2,2.3|
4,3,7.8|
4,4,8.1|
4,5,4.1|
4,6,4.4|
4,7,3|
5,0,0.49|
5,1,6.4|
5,2,8.6|
5,3,7.6|
5,4,8.2|
5,5,8.6|
5,6,5.9|
5,7,6.4|
6,0,8.2|
6,1,1.1|
6,2,5.1|
6,3,0.85|
6,4,5|
6,5,0.00075|
6,6,8.6|
6,7,8.6|
7,0,4.7|
7,1,5.5|
7,2,0.94|
7,3,9.4|
7,4,0.4|
7,5,4.1|
7,6,2.3|
7,7,3.2|
];
constraint_x3_x2=[
0,0,6.5|
0,1,2.7|
0,2,8.2|
0,3,8.1|
0,4,8.5|
0,5,9.6|
0,6,1.2|
0,7,8.1|
1,0,0.18|
1,1,1.1|
1,2,0.92|
1,3,2.8|
1,4,0.85|
1,5,6.9|
1,6,1.2|
1,7,5.4|
2,0,4.8|
2,1,3.3|
2,2,8.5|
2,3,3.2|
2,4,8.5|
2,5,1.2|
2,6,8.9|
2,7,1.2|
3,0,1.4|
3,1,2|
3,2,2|
3,3,2.9|
3,4,9.8|
3,5,6.7|
3,6,8.2|
3,7,7.9|
4,0,3.2|
4,1,2.3|
4,2,0.95|
4,3,8.1|
4,4,2.4|
4,5,0.23|
4,6,2.9|
4,7,4.2|
5,0,8|
5,1,7.3|
5,2,3.5|
5,3,5.4|
5,4,6.1|
5,5,0.59|
5,6,8.6|
5,7,4.1|
6,0,1.7|
6,1,1.7|
6,2,7.2|
6,3,7.2|
6,4,7.1|
6,5,2.1|
6,6,1.8|
6,7,8|
7,0,1.5|
7,1,6.8|
7,2,0.97|
7,3,6.6|
7,4,8.7|
7,5,8.6|
7,6,4.8|
7,7,0.27|
];
constraint_x4_x3=[
0,0,7.2|
0,1,4.7|
0,2,7.3|
0,3,2.8|
0,4,2.4|
0,5,0.42|
0,6,1.7|
0,7,9.2|
1,0,8.9|
1,1,3.2|
1,2,0.7|
1,3,1.3|
1,4,8.8|
1,5,2.8|
1,6,0.61|
1,7,9.1|
2,0,1.1|
2,1,7|
2,2,0.24|
2,3,3.1|
2,4,2.4|
2,5,6.9|
2,6,5.3|
2,7,5.9|
3,0,1.6|
3,1,8.6|
3,2,3.8|
3,3,6.2|
3,4,6.7|
3,5,3.9|
3,6,2.4|
3,7,8.4|
4,0,3.7|
4,1,3.4|
4,2,7.9|
4,3,2.3|
4,4,3.2|
4,5,6.1|
4,6,0.89|
4,7,2.3|
5,0,1.1|
5,1,5.1|
5,2,4.6|
5,3,1.7|
5,4,0.18|
5,5,0.84|
5,6,2.1|
5,7,8.9|
6,0,9|
6,1,7|
6,2,1.1|
6,3,3|
6,4,3.4|
6,5,4.9|
6,6,4|
6,7,5.8|
7,0,6.7|
7,1,3.9|
7,2,8|
7,3,5.2|
7,4,2.3|
7,5,1.4|
7,6,7.6|
7,7,1.5|
];
constraint_x5_x1=[
0,0,0.51|
0,1,5.1|
0,2,4.5|
0,3,9.2|
0,4,8.7|
0,5,3|
0,6,2.7|
0,7,3.4|
1,0,2.9|
1,1,9.3|
1,2,5.3|
1,3,7.2|
1,4,1.3|
1,5,9.5|
1,6,2.4|
1,7,5.8|
2,0,9.1|
2,1,8.2|
2,2,8.5|
2,3,8|
2,4,8.5|
2,5,8.4|
2,6,6.8|
2,7,8.3|
3,0,2.2|
3,1,7|
3,2,9.1|
3,3,4.9|
3,4,1.6|
3,5,5.3|
3,6,5|
3,7,6.9|
4,0,4.2|
4,1,7.9|
4,2,6.3|
4,3,1.8|
4,4,0.49|
4,5,3.1|
4,6,7.2|
4,7,1.6|
5,0,4.4|
5,1,3.1|
5,2,4.2|
5,3,3.1|
5,4,0.5|
5,5,7.8|
5,6,9.7|
5,7,0.37|
6,0,3.5|
6,1,6.6|
6,2,4.6|
6,3,0.57|
6,4,7.3|
6,5,1.1|
6,6,3.9|
6,7,6.7|
7,0,6.9|
7,1,2.9|
7,2,8|
7,3,8.1|
7,4,4.1|
7,5,9.5|
7,6,0.75|
7,7,9.8|
];
constraint_x6_x2=[
0,0,6.6|
0,1,1.4|
0,2,8|
0,3,9.4|
0,4,8.3|
0,5,9.6|
0,6,7.2|
0,7,0.0035|
1,0,4.5|
1,1,6.7|
1,2,9.1|
1,3,1.3|
1,4,4.9|
1,5,7.9|
1,6,8.8|
1,7,2.8|
2,0,0.73|
2,1,0.49|
2,2,6.4|
2,3,2.7|
2,4,7|
2,5,5.8|
2,6,9.5|
2,7,1.9|
3,0,6.4|
3,1,8.1|
3,2,5.1|
3,3,3.5|
3,4,1.7|
3,5,0.29|
3,6,4.1|
3,7,5|
4,0,5.9|
4,1,6.7|
4,2,5.9|
4,3,5.5|
4,4,6.1|
4,5,5.1|
4,6,6.1|
4,7,1.5|
5,0,5.3|
5,1,7.5|
5,2,8.9|
5,3,0.016|
5,4,8.4|
5,5,8.1|
5,6,8.7|
5,7,3|
6,0,9.1|
6,1,4.7|
6,2,2.8|
6,3,7.8|
6,4,9.8|
6,5,6.5|
6,6,0.33|
6,7,0.32|
7,0,0.041|
7,1,8.2|
7,2,3|
7,3,2.7|
7,4,3.5|
7,5,0.58|
7,6,9.8|
7,7,9.6|
];
constraint_x6_x5=[
0,0,7.4|
0,1,6.2|
0,2,9.7|
0,3,9.1|
0,4,4.9|
0,5,6.1|
0,6,4.4|
0,7,9.3|
1,0,0.73|
1,1,0.73|
1,2,6.1|
1,3,7.6|
1,4,8.3|
1,5,3.3|
1,6,2.8|
1,7,8.3|
2,0,7.6|
2,1,1.3|
2,2,3.7|
2,3,4.7|
2,4,8|
2,5,6.2|
2,6,7.1|
2,7,9.3|
3,0,6.1|
3,1,1.9|
3,2,8|
3,3,4.2|
3,4,1.1|
3,5,5.4|
3,6,9.6|
3,7,9.8|
4,0,7.9|
4,1,5.1|
4,2,4.4|
4,3,3.2|
4,4,8.8|
4,5,2.7|
4,6,6.1|
4,7,0.0086|
5,0,6.4|
5,1,1.5|
5,2,6.5|
5,3,6.9|
5,4,2.5|
5,5,5.4|
5,6,3|
5,7,2.5|
6,0,9.3|
6,1,4.2|
6,2,9.7|
6,3,7.5|
6,4,7.3|
6,5,1.3|
6,6,4.4|
6,7,3.1|
7,0,5.7|
7,1,3|
7,2,9.7|
7,3,9.8|
7,4,1.4|
7,5,6.5|
7,6,0.8|
7,7,9|
];
constraint_x7_x3=[
0,0,5|
0,1,0.71|
0,2,3.4|
0,3,6.6|
0,4,4.7|
0,5,9.6|
0,6,8|
0,7,2.2|
1,0,7|
1,1,2.6|
1,2,0.22|
1,3,0.6|
1,4,9.4|
1,5,3|
1,6,4.4|
1,7,5.5|
2,0,3.2|
2,1,8.2|
2,2,6.9|
2,3,8.4|
2,4,6.3|
2,5,8.3|
2,6,6|
2,7,0.6|
3,0,1.3|
3,1,5.4|
3,2,2.5|
3,3,0.71|
3,4,8.7|
3,5,7.6|
3,6,7.8|
3,7,4.3|
4,0,1.7|
4,1,3.4|
4,2,8.3|
4,3,7.8|
4,4,7|
4,5,0.66|
4,6,0.72|
4,7,1.9|
5,0,3.3|
5,1,1.3|
5,2,8.8|
5,3,8.7|
5,4,9.8|
5,5,7.5|
5,6,0.13|
5,7,1.4|
6,0,6.1|
6,1,5.2|
6,2,8.9|
6,3,3.6|
6,4,6.3|
6,5,7.2|
6,6,6.2|
6,7,0.63|
7,0,4.2|
7,1,9.7|
7,2,2.5|
7,3,8.4|
7,4,0.53|
7,5,2.3|
7,6,4.3|
7,7,6.9|
];
constraint_x7_x6=[
0,0,7.3|
0,1,1.8|
0,2,3|
0,3,5.5|
0,4,6.9|
0,5,6.4|
0,6,4.8|
0,7,4.8|
1,0,2.4|
1,1,8.4|
1,2,3.5|
1,3,3.2|
1,4,8.1|
1,5,5.8|
1,6,6.5|
1,7,0.98|
2,0,4.7|
2,1,6.9|
2,2,4.9|
2,3,1.2|
2,4,4.1|
2,5,4.8|
2,6,4.2|
2,7,3.8|
3,0,2|
3,1,0.054|
3,2,0.83|
3,3,8.1|
3,4,9.4|
3,5,6.3|
3,6,6|
3,7,0.43|
4,0,9.4|
4,1,9.1|
4,2,7.3|
4,3,8.6|
4,4,5|
4,5,1.5|
4,6,6.8|
4,7,0.055|
5,0,3.3|
5,1,5.2|
5,2,6.3|
5,3,2.9|
5,4,6.6|
5,5,4|
5,6,3.1|
5,7,6.5|
6,0,6.4|
6,1,3.1|
6,2,5.3|
6,3,2.7|
6,4,7.3|
6,5,9.3|
6,6,7.9|
6,7,3.6|
7,0,0.67|
7,1,2.5|
7,2,3.8|
7,3,7|
7,4,3.2|
7,5,4.1|
7,6,2.5|
7,7,5.2|
];
constraint_x8_x4=[
0,0,8.8|
0,1,5.9|
0,2,7.5|
0,3,8.3|
0,4,2.7|
0,5,8.5|
0,6,3.7|
0,7,3.5|
1,0,6|
1,1,4.5|
1,2,8.3|
1,3,6.6|
1,4,5.4|
1,5,2.4|
1,6,9.4|
1,7,8.2|
2,0,8.6|
2,1,6.6|
2,2,4.6|
2,3,1.9|
2,4,7.4|
2,5,3.6|
2,6,2.2|
2,7,3.6|
3,0,8.2|
3,1,4.6|
3,2,1.5|
3,3,4.9|
3,4,6.7|
3,5,1.4|
3,6,1.9|
3,7,7.7|
4,0,6|
4,1,3.2|
4,2,6.5|
4,3,9.6|
4,4,2.1|
4,5,7.6|
4,6,5.1|
4,7,5.3|
5,0,8.1|
5,1,1.2|
5,2,3.8|
5,3,6.5|
5,4,1.1|
5,5,5.9|
5,6,0.38|
5,7,7.7|
6,0,9.3|
6,1,5.1|
6,2,6.7|
6,3,6.6|
6,4,9.1|
6,5,5.1|
6,6,2.2|
6,7,6.1|
7,0,8.5|
7,1,9|
7,2,8.3|
7,3,0.93|
7,4,0.82|
7,5,2.3|
7,6,5.6|
7,7,7.8|
];
constraint_x8_x7=[
0,0,4.4|
0,1,4.3|
0,2,8.4|
0,3,6.6|
0,4,5.8|
0,5,2.3|
0,6,9.1|
0,7,6.8|
1,0,4|
1,1,1.9|
1,2,2.4|
1,3,7.2|
1,4,9.2|
1,5,1.2|
1,6,1.5|
1,7,6.6|
2,0,5|
2,1,6.6|
2,2,7.4|
2,3,4.5|
2,4,9|
2,5,2|
2,6,2.2|
2,7,8.4|
3,0,0.43|
3,1,2.1|
3,2,8.2|
3,3,1.2|
3,4,8.2|
3,5,9.9|
3,6,9.2|
3,7,8.3|
4,0,8.2|
4,1,2.9|
4,2,6.6|
4,3,5.4|
4,4,7.2|
4,5,7.7|
4,6,3.7|
4,7,3.8|
5,0,3|
5,1,7|
5,2,6.8|
5,3,1.5|
5,4,9.4|
5,5,0.29|
5,6,5.4|
5,7,5.6|
6,0,0.79|
6,1,6.1|
6,2,4.9|
6,3,2.3|
6,4,7.4|
6,5,8.6|
6,6,6.4|
6,7,5.8|
7,0,2.1|
7,1,4|
7,2,7.4|
7,3,8.4|
7,4,4.2|
7,5,3.5|
7,6,0.32|
7,7,3.4|
];
constraint_x9_x5=[
0,0,8|
0,1,7.8|
0,2,9.3|
0,3,1.5|
0,4,3.1|
0,5,5.1|
0,6,2.8|
0,7,1|
1,0,5.3|
1,1,4.6|
1,2,5.5|
1,3,2.2|
1,4,7.3|
1,5,0.57|
1,6,9.6|
1,7,3|
2,0,5.6|
2,1,9.1|
2,2,8.5|
2,3,8.1|
2,4,0.91|
2,5,5.3|
2,6,7.2|
2,7,9.1|
3,0,8.5|
3,1,6.6|
3,2,8.8|
3,3,7.2|
3,4,8.3|
3,5,0.99|
3,6,7.3|
3,7,9.4|
4,0,6.9|
4,1,0.007|
4,2,4.4|
4,3,6.7|
4,4,0.83|
4,5,0.17|
4,6,9.8|
4,7,3.5|
5,0,6|
5,1,7.2|
5,2,3|
5,3,5.5|
5,4,7.7|
5,5,2.4|
5,6,0.73|
5,7,3.9|
6,0,7.4|
6,1,6.7|
6,2,8.7|
6,3,0.3|
6,4,5.7|
6,5,6.3|
6,6,2.7|
6,7,0.67|
7,0,1.5|
7,1,4.8|
7,2,4.8|
7,3,2.4|
7,4,0.92|
7,5,1|
7,6,1.7|
7,7,3.7|
];
constraint_x10_x6=[
0,0,4.8|
0,1,4.1|
0,2,2.3|
0,3,4|
0,4,3.1|
0,5,6.4|
0,6,4.3|
0,7,7.6|
1,0,1.9|
1,1,0.85|
1,2,3.3|
1,3,6.3|
1,4,2.7|
1,5,7.9|
1,6,1.2|
1,7,9.6|
2,0,4.8|
2,1,5.9|
2,2,4.9|
2,3,1.4|
2,4,6.6|
2,5,6.1|
2,6,3.7|
2,7,2.4|
3,0,3.2|
3,1,4.3|
3,2,0.72|
3,3,4.8|
3,4,6.7|
3,5,7.1|
3,6,2.6|
3,7,2.6|
4,0,8.1|
4,1,0.9|
4,2,1.9|
4,3,6.7|
4,4,5.7|
4,5,6.6|
4,6,0.081|
4,7,7.2|
5,0,0.051|
5,1,2.2|
5,2,4.7|
5,3,3|
5,4,7|
5,5,7.5|
5,6,6.2|
5,7,0.077|
6,0,2.1|
6,1,3.2|
6,2,2|
6,3,1.4|
6,4,0.8|
6,5,7.2|
6,6,4.6|
6,7,7.6|
7,0,8.3|
7,1,1.1|
7,2,5.3|
7,3,4.2|
7,4,7.8|
7,5,4.6|
7,6,9.8|
7,7,3.3|
];
constraint_x10_x9=[
0,0,0.75|
0,1,9.8|
0,2,1.7|
0,3,6.7|
0,4,5.1|
0,5,0.78|
0,6,8.3|
0,7,5|
1,0,8.7|
1,1,9.3|
1,2,6.9|
1,3,0.27|
1,4,6.1|
1,5,3.7|
1,6,1.7|
1,7,8.1|
2,0,3.6|
2,1,9.2|
2,2,8.7|
2,3,0.86|
2,4,9.6|
2,5,0.84|
2,6,8.6|
2,7,2.3|
3,0,6.4|
3,1,4|
3,2,4.2|
3,3,7.4|
3,4,6.4|
3,5,1.4|
3,6,4.5|
3,7,7.9|
4,0,1.5|
4,1,9.5|
4,2,3.8|
4,3,9.1|
4,4,7.7|
4,5,4.3|
4,6,0.52|
4,7,3.3|
5,0,9.1|
5,1,3.9|
5,2,0.28|
5,3,6.8|
5,4,5.6|
5,5,9.1|
5,6,9.5|
5,7,7.6|
6,0,4.9|
6,1,7.4|
6,2,7.9|
6,3,4.7|
6,4,6.8|
6,5,10|
6,6,5.9|
6,7,4.4|
7,0,6|
7,1,0.44|
7,2,2.1|
7,3,1.9|
7,4,8.3|
7,5,7.8|
7,6,3.3|
7,7,4.5|
];
constraint_x11_x7=[
0,0,4.4|
0,1,7.5|
0,2,0.14|
0,3,5.9|
0,4,5.9|
0,5,5.2|
0,6,4.4|
0,7,9.3|
1,0,1.9|
1,1,0.94|
1,2,7.1|
1,3,9.1|
1,4,6.7|
1,5,7.4|
1,6,8.9|
1,7,7.8|
2,0,8.7|
2,1,0.91|
2,2,3|
2,3,7.5|
2,4,5.7|
2,5,7.4|
2,6,9.7|
2,7,0.52|
3,0,1.9|
3,1,3.3|
3,2,1.2|
3,3,9.4|
3,4,0.64|
3,5,2.9|
3,6,3.1|
3,7,2.9|
4,0,8.7|
4,1,3.8|
4,2,5.1|
4,3,4.9|
4,4,7.5|
4,5,1.5|
4,6,2.3|
4,7,7.9|
5,0,2.6|
5,1,1.2|
5,2,6.2|
5,3,5.8|
5,4,5.5|
5,5,0.55|
5,6,7.9|
5,7,6.8|
6,0,4.8|
6,1,7|
6,2,1.2|
6,3,0.32|
6,4,2.8|
6,5,9.5|
6,6,6.6|
6,7,6.5|
7,0,0.86|
7,1,7.1|
7,2,6|
7,3,7.2|
7,4,6.6|
7,5,8.4|
7,6,4.6|
7,7,4.1|
];
constraint_x11_x10=[
0,0,4.2|
0,1,6.7|
0,2,0.89|
0,3,7.8|
0,4,6|
0,5,7.1|
0,6,9.7|
0,7,8.7|
1,0,9.2|
1,1,1.2|
1,2,6.5|
1,3,7.7|
1,4,10|
1,5,1.4|
1,6,9.1|
1,7,2.9|
2,0,0.097|
2,1,4.9|
2,2,9|
2,3,3.5|
2,4,5.9|
2,5,0.97|
2,6,1.7|
2,7,4.9|
3,0,7|
3,1,2.3|
3,2,3.3|
3,3,2.7|
3,4,2|
3,5,7.9|
3,6,5.3|
3,7,7|
4,0,5.1|
4,1,2.6|
4,2,2.3|
4,3,4.4|
4,4,1.7|
4,5,5.6|
4,6,5.4|
4,7,3|
5,0,2.7|
5,1,1|
5,2,4|
5,3,1.5|
5,4,9.2|
5,5,9|
5,6,1.5|
5,7,6.6|
6,0,2.6|
6,1,9.7|
6,2,9.9|
6,3,7.7|
6,4,5.3|
6,5,4.4|
6,6,3.3|
6,7,4.7|
7,0,2.3|
7,1,7.4|
7,2,1.7|
7,3,1.3|
7,4,5.2|
7,5,3|
7,6,5.8|
7,7,7.4|
];
constraint_x12_x8=[
0,0,7.8|
0,1,1.1|
0,2,9.8|
0,3,6.3|
0,4,0.64|
0,5,4.9|
0,6,9.6|
0,7,7.2|
1,0,8.8|
1,1,3.5|
1,2,9.7|
1,3,3.7|
1,4,9.4|
1,5,8.8|
1,6,7.7|
1,7,1.3|
2,0,4.7|
2,1,6|
2,2,6.9|
2,3,8.8|
2,4,2.5|
2,5,8.3|
2,6,0.036|
2,7,9|
3,0,3.5|
3,1,8.1|
3,2,2.6|
3,3,1.9|
3,4,1.4|
3,5,8.1|
3,6,5|
3,7,5.9|
4,0,8.3|
4,1,1.1|
4,2,4.6|
4,3,9|
4,4,4.5|
4,5,2.8|
4,6,2.2|
4,7,6.5|
5,0,7.3|
5,1,2.3|
5,2,5.3|
5,3,5.5|
5,4,2|
5,5,8.4|
5,6,1.2|
5,7,5.4|
6,0,9.8|
6,1,2|
6,2,1.4|
6,3,1.1|
6,4,0.67|
6,5,0.5|
6,6,3.1|
6,7,8.2|
7,0,1.8|
7,1,2|
7,2,5.5|
7,3,7.1|
7,4,4.1|
7,5,6.1|
7,6,8.3|
7,7,6.4|
];
constraint_x12_x11=[
0,0,4.6|
0,1,7.3|
0,2,2.8|
0,3,7|
0,4,7.4|
0,5,5.8|
0,6,6.6|
0,7,6.1|
1,0,1.3|
1,1,1.2|
1,2,1.7|
1,3,5.1|
1,4,9.7|
1,5,8.5|
1,6,0.53|
1,7,5.9|
2,0,0.17|
2,1,6.3|
2,2,3.8|
2,3,7|
2,4,2.1|
2,5,4.1|
2,6,4.2|
2,7,6|
3,0,2.1|
3,1,1.6|
3,2,0.3|
3,3,1.3|
3,4,3.8|
3,5,8.3|
3,6,7.5|
3,7,3|
4,0,6.3|
4,1,4.8|
4,2,0.86|
4,3,5.3|
4,4,3.9|
4,5,0.99|
4,6,7.4|
4,7,8|
5,0,6.3|
5,1,1.6|
5,2,3.6|
5,3,9.7|
5,4,8.7|
5,5,5.4|
5,6,7|
5,7,4.9|
6,0,2.9|
6,1,4.2|
6,2,2.3|
6,3,7.6|
6,4,4.7|
6,5,8.3|
6,6,6.5|
6,7,4.2|
7,0,9.5|
7,1,2.5|
7,2,3.6|
7,3,7.9|
7,4,5.6|
7,5,10|
7,6,8.4|
7,7,0.56|
];
constraint_x13_x9=[
0,0,6.1|
0,1,9.5|
0,2,0.76|
0,3,9.2|
0,4,7.2|
0,5,1.8|
0,6,1.6|
0,7,6.7|
1,0,2.9|
1,1,5.1|
1,2,7.6|
1,3,5.4|
1,4,2.2|
1,5,9.3|
1,6,1.8|
1,7,2|
2,0,4.4|
2,1,8.8|
2,2,4.9|
2,3,8.1|
2,4,1.6|
2,5,4.7|
2,6,1.6|
2,7,3.7|
3,0,7|
3,1,6.8|
3,2,9.1|
3,3,9.5|
3,4,6.3|
3,5,5.8|
3,6,1.8|
3,7,8.3|
4,0,3.7|
4,1,8.4|
4,2,6.4|
4,3,3.7|
4,4,6|
4,5,3.5|
4,6,1.9|
4,7,4|
5,0,9|
5,1,8.1|
5,2,3.6|
5,3,0.17|
5,4,0.48|
5,5,3.3|
5,6,3.1|
5,7,0.24|
6,0,5.1|
6,1,1.4|
6,2,9.4|
6,3,4.5|
6,4,7.8|
6,5,1.2|
6,6,2.7|
6,7,0.78|
7,0,7.7|
7,1,2.9|
7,2,0.77|
7,3,9.9|
7,4,5.6|
7,5,0.057|
7,6,1.4|
7,7,4|
];
constraint_x14_x10=[
0,0,7.1|
0,1,4.8|
0,2,9.4|
0,3,7.7|
0,4,0.089|
0,5,4.1|
0,6,5.3|
0,7,6.2|
1,0,1.3|
1,1,5.9|
1,2,0.75|
1,3,9.6|
1,4,1|
1,5,8.9|
1,6,2.3|
1,7,0.48|
2,0,0.21|
2,1,1.1|
2,2,4.5|
2,3,5.8|
2,4,7.1|
2,5,0.59|
2,6,8.3|
2,7,9.7|
3,0,9.9|
3,1,6.4|
3,2,3.4|
3,3,2.7|
3,4,0.21|
3,5,2.5|
3,6,8.9|
3,7,1.5|
4,0,8.8|
4,1,7.8|
4,2,3|
4,3,1.8|
4,4,6.3|
4,5,2|
4,6,1.5|
4,7,7.5|
5,0,6.2|
5,1,7.4|
5,2,5.4|
5,3,4.9|
5,4,2.8|
5,5,4.7|
5,6,7.9|
5,7,9.7|
6,0,1.2|
6,1,5.6|
6,2,0.72|
6,3,5.3|
6,4,3.5|
6,5,7.1|
6,6,7.7|
6,7,9.6|
7,0,1.5|
7,1,0.94|
7,2,9.1|
7,3,9.4|
7,4,5.1|
7,5,0.51|
7,6,4.4|
7,7,7.2|
];
constraint_x14_x13=[
0,0,8.2|
0,1,7.7|
0,2,8|
0,3,3.2|
0,4,9|
0,5,6.4|
0,6,5.7|
0,7,1.4|
1,0,8.2|
1,1,6.3|
1,2,6.4|
1,3,5.8|
1,4,7.8|
1,5,7|
1,6,6.5|
1,7,3.9|
2,0,8|
2,1,4.6|
2,2,0.16|
2,3,6.5|
2,4,5.6|
2,5,4.3|
2,6,6.6|
2,7,3.5|
3,0,6.6|
3,1,9.4|
3,2,6.5|
3,3,5.4|
3,4,5.1|
3,5,8.7|
3,6,3.8|
3,7,2.2|
4,0,9.8|
4,1,9.5|
4,2,4.7|
4,3,4.2|
4,4,9.2|
4,5,9.3|
4,6,4.8|
4,7,2.4|
5,0,1|
5,1,4.2|
5,2,8.5|
5,3,8.1|
5,4,0.98|
5,5,3|
5,6,7.8|
5,7,6.3|
6,0,2|
6,1,9.6|
6,2,7.5|
6,3,7.7|
6,4,4.6|
6,5,3|
6,6,0.45|
6,7,9.1|
7,0,4.9|
7,1,8.8|
7,2,6|
7,3,8.8|
7,4,2.1|
7,5,1.5|
7,6,1.7|
7,7,2.2|
];
constraint_x15_x11=[
0,0,0.82|
0,1,6|
0,2,9.1|
0,3,4.3|
0,4,7|
0,5,7.9|
0,6,0.17|
0,7,8.5|
1,0,0.2|
1,1,7.8|
1,2,2.7|
1,3,9.5|
1,4,8.4|
1,5,3.9|
1,6,0.99|
1,7,3.5|
2,0,0.47|
2,1,7.3|
2,2,8.2|
2,3,9.9|
2,4,2|
2,5,4|
2,6,1.5|
2,7,9.9|
3,0,6.1|
3,1,9.8|
3,2,9.7|
3,3,4|
3,4,4.9|
3,5,8.5|
3,6,4.9|
3,7,0.72|
4,0,3.6|
4,1,5.3|
4,2,7.4|
4,3,7.7|
4,4,5.5|
4,5,9.4|
4,6,4.5|
4,7,7.2|
5,0,8.5|
5,1,7.5|
5,2,5.8|
5,3,4.1|
5,4,6.1|
5,5,5.4|
5,6,3.2|
5,7,6.6|
6,0,8.1|
6,1,5.5|
6,2,9.1|
6,3,3.7|
6,4,0.06|
6,5,5.5|
6,6,8.7|
6,7,1.8|
7,0,2|
7,1,4.7|
7,2,9.2|
7,3,1.1|
7,4,9.1|
7,5,1.3|
7,6,8.4|
7,7,7.3|
];
constraint_x15_x14=[
0,0,1.8|
0,1,8.6|
0,2,7.4|
0,3,1.7|
0,4,9.7|
0,5,0.21|
0,6,4.6|
0,7,4.3|
1,0,9|
1,1,2.3|
1,2,4.5|
1,3,8|
1,4,5.3|
1,5,5.1|
1,6,0.89|
1,7,1.8|
2,0,0.18|
2,1,8.4|
2,2,6.7|
2,3,9.2|
2,4,7.9|
2,5,4.4|
2,6,4|
2,7,6.1|
3,0,8.5|
3,1,8.8|
3,2,5.3|
3,3,7.9|
3,4,9|
3,5,3.8|
3,6,0.4|
3,7,2.1|
4,0,4.9|
4,1,4.3|
4,2,6.9|
4,3,1.8|
4,4,3.8|
4,5,1.1|
4,6,6.3|
4,7,6.7|
5,0,4.5|
5,1,4.7|
5,2,1.2|
5,3,2.3|
5,4,3.5|
5,5,5.6|
5,6,7.8|
5,7,3.9|
6,0,4.4|
6,1,0.58|
6,2,4.5|
6,3,4.6|
6,4,2.9|
6,5,2.1|
6,6,0.75|
6,7,7.2|
7,0,9.8|
7,1,0.92|
7,2,7.8|
7,3,4.7|
7,4,1.2|
7,5,9.8|
7,6,3.1|
7,7,4.3|
];
constraint_x16_x12=[
0,0,2.9|
0,1,1.4|
0,2,1.4|
0,3,10|
0,4,3.6|
0,5,3.8|
0,6,4.5|
0,7,7.6|
1,0,10|
1,1,1.3|
1,2,3.9|
1,3,6.5|
1,4,5.5|
1,5,0.74|
1,6,8|
1,7,0.13|
2,0,2.5|
2,1,3.6|
2,2,2.5|
2,3,9.8|
2,4,8.8|
2,5,2.6|
2,6,5|
2,7,8.9|
3,0,4.2|
3,1,2.3|
3,2,3.9|
3,3,2.7|
3,4,5.3|
3,5,6.1|
3,6,9|
3,7,2.7|
4,0,6.5|
4,1,8.5|
4,2,9.5|
4,3,6|
4,4,5.9|
4,5,2|
4,6,1.3|
4,7,8.7|
5,0,0.81|
5,1,8.4|
5,2,8.3|
5,3,1|
5,4,5.8|
5,5,4.2|
5,6,5.9|
5,7,3.7|
6,0,4.1|
6,1,9.3|
6,2,8.5|
6,3,1.5|
6,4,0.75|
6,5,7|
6,6,3.9|
6,7,1.9|
7,0,3.1|
7,1,4.7|
7,2,7.4|
7,3,3.5|
7,4,8.9|
7,5,8.5|
7,6,8.7|
7,7,8.8|
];
constraint_x16_x15=[
0,0,2.4|
0,1,5.1|
0,2,0.52|
0,3,5.4|
0,4,8.2|
0,5,8.9|
0,6,7.6|
0,7,5.6|
1,0,2.9|
1,1,1.9|
1,2,6.7|
1,3,0.76|
1,4,6.7|
1,5,6.6|
1,6,9.4|
1,7,5.8|
2,0,0.57|
2,1,4.2|
2,2,3.1|
2,3,5.5|
2,4,5.9|
2,5,6.6|
2,6,4.8|
2,7,3.7|
3,0,9.4|
3,1,5.4|
3,2,7.3|
3,3,4.5|
3,4,2|
3,5,0.026|
3,6,0.082|
3,7,2.9|
4,0,9.4|
4,1,1.4|
4,2,2.3|
4,3,6.2|
4,4,9.5|
4,5,9.4|
4,6,4.1|
4,7,5.9|
5,0,8.8|
5,1,4.8|
5,2,5.2|
5,3,5.6|
5,4,8.2|
5,5,7.3|
5,6,4.8|
5,7,0.5|
6,0,2.3|
6,1,1.3|
6,2,9.8|
6,3,1.1|
6,4,9.3|
6,5,5.9|
6,6,3.6|
6,7,6.5|
7,0,9.9|
7,1,2.2|
7,2,2.3|
7,3,6.7|
7,4,3.9|
7,5,0.082|
7,6,4.9|
7,7,9.7|
];
constraint_x17_x13=[
0,0,4.1|
0,1,3.1|
0,2,5.4|
0,3,3.4|
0,4,6.6|
0,5,5.2|
0,6,4.1|
0,7,0.13|
1,0,8.2|
1,1,1.8|
1,2,3.3|
1,3,1.4|
1,4,3|
1,5,0.079|
1,6,10|
1,7,4|
2,0,0.9|
2,1,2.9|
2,2,8.9|
2,3,3.2|
2,4,5.2|
2,5,7.1|
2,6,1.4|
2,7,4.6|
3,0,6.8|
3,1,2.3|
3,2,7.8|
3,3,4.7|
3,4,7.5|
3,5,3.2|
3,6,7.9|
3,7,2.7|
4,0,6.3|
4,1,0.86|
4,2,8.9|
4,3,3.2|
4,4,3.9|
4,5,1.3|
4,6,0.69|
4,7,4.9|
5,0,2.8|
5,1,0.17|
5,2,6.6|
5,3,9.4|
5,4,4|
5,5,6.9|
5,6,8.6|
5,7,5.4|
6,0,4.9|
6,1,5.9|
6,2,0.035|
6,3,3|
6,4,5.9|
6,5,8.4|
6,6,5|
6,7,3.4|
7,0,1.8|
7,1,7.3|
7,2,9.6|
7,3,2|
7,4,2.9|
7,5,6.2|
7,6,9.2|
7,7,8.1|
];
constraint_x18_x14=[
0,0,0.27|
0,1,6.6|
0,2,4.9|
0,3,6.6|
0,4,7|
0,5,3.1|
0,6,8.7|
0,7,9.2|
1,0,1.9|
1,1,2.5|
1,2,5.8|
1,3,7.8|
1,4,7.3|
1,5,5.6|
1,6,3.4|
1,7,8.2|
2,0,9.4|
2,1,8.1|
2,2,6|
2,3,4.1|
2,4,2.1|
2,5,8.3|
2,6,1.1|
2,7,8.6|
3,0,4.7|
3,1,1.1|
3,2,5.9|
3,3,7.7|
3,4,3.1|
3,5,6.2|
3,6,6|
3,7,7.7|
4,0,0.3|
4,1,1.9|
4,2,0.41|
4,3,8.2|
4,4,0.54|
4,5,7.9|
4,6,8|
4,7,1.6|
5,0,0.27|
5,1,3.9|
5,2,1.3|
5,3,1.2|
5,4,8.9|
5,5,5.2|
5,6,6.6|
5,7,0.63|
6,0,9.1|
6,1,3.5|
6,2,5.3|
6,3,8.5|
6,4,8.5|
6,5,6.4|
6,6,3.3|
6,7,6.2|
7,0,0.039|
7,1,1.3|
7,2,9.4|
7,3,0.53|
7,4,0.97|
7,5,0.78|
7,6,3.4|
7,7,8.7|
];
constraint_x1_y1=[
0,0,9.9|
0,1,1.5|
0,2,2.4|
0,3,5.4|
0,4,1.2|
0,5,2.6|
0,6,4.5|
0,7,8.7|
1,0,3|
1,1,8.3|
1,2,7|
1,3,3.8|
1,4,0.34|
1,5,3|
1,6,9.7|
1,7,6.5|
2,0,8.5|
2,1,7.1|
2,2,9.8|
2,3,2.4|
2,4,9.8|
2,5,4.8|
2,6,3.9|
2,7,3.8|
3,0,6.9|
3,1,2.2|
3,2,6.6|
3,3,0.95|
3,4,4.4|
3,5,5.4|
3,6,1.9|
3,7,4.9|
4,0,2.9|
4,1,7.2|
4,2,5.9|
4,3,4.5|
4,4,3.5|
4,5,6.2|
4,6,8.9|
4,7,4|
5,0,0.7|
5,1,5.4|
5,2,3.7|
5,3,1|
5,4,4.6|
5,5,6.6|
5,6,2.1|
5,7,5.7|
6,0,1.3|
6,1,9.2|
6,2,2.5|
6,3,7.8|
6,4,0.46|
6,5,2.4|
6,6,2.5|
6,7,8.2|
7,0,2.3|
7,1,1.3|
7,2,8.4|
7,3,8|
7,4,1.8|
7,5,2.1|
7,6,7.7|
7,7,9.8|
];
constraint_x2_y2=[
0,0,2|
0,1,7.7|
0,2,5.3|
0,3,2.5|
0,4,2.6|
0,5,6.5|
0,6,6.3|
0,7,8.4|
1,0,1.9|
1,1,2.9|
1,2,1.8|
1,3,7.6|
1,4,6.4|
1,5,8|
1,6,5.5|
1,7,8.8|
2,0,1.3|
2,1,7.4|
2,2,8.8|
2,3,4.7|
2,4,0.14|
2,5,3.7|
2,6,9.1|
2,7,7.8|
3,0,3.4|
3,1,4.1|
3,2,8|
3,3,7.9|
3,4,6.9|
3,5,3.1|
3,6,5.5|
3,7,0.2|
4,0,5|
4,1,4.7|
4,2,4|
4,3,8.6|
4,4,0.78|
4,5,8.9|
4,6,1.1|
4,7,1.8|
5,0,5.1|
5,1,7.2|
5,2,2.7|
5,3,2.2|
5,4,0.56|
5,5,4.7|
5,6,6.7|
5,7,4.6|
6,0,7.3|
6,1,7|
6,2,4.4|
6,3,3.7|
6,4,7.1|
6,5,7.4|
6,6,5.2|
6,7,0.96|
7,0,3.9|
7,1,5.6|
7,2,3.5|
7,3,0.66|
7,4,6.3|
7,5,8.2|
7,6,0.73|
7,7,4.3|
];
constraint_x3_y3=[
0,0,4.8|
0,1,6.3|
0,2,2.7|
0,3,6.9|
0,4,2|
0,5,9.3|
0,6,4.8|
0,7,9.4|
1,0,0.0047|
1,1,5.1|
1,2,5.1|
1,3,1|
1,4,4.8|
1,5,7.1|
1,6,2|
1,7,5.1|
2,0,3.1|
2,1,7.3|
2,2,4.9|
2,3,0.85|
2,4,0.71|
2,5,3.7|
2,6,2.5|
2,7,0.41|
3,0,8.7|
3,1,0.25|
3,2,3|
3,3,9.9|
3,4,8.4|
3,5,1.4|
3,6,5.4|
3,7,8.5|
4,0,7.3|
4,1,5.5|
4,2,9|
4,3,6|
4,4,6.9|
4,5,9.7|
4,6,7.8|
4,7,0.0014|
5,0,2.2|
5,1,4.2|
5,2,3.9|
5,3,7.3|
5,4,3.8|
5,5,1.2|
5,6,6.7|
5,7,0.56|
6,0,5.5|
6,1,3.6|
6,2,7.9|
6,3,3.5|
6,4,5|
6,5,2.9|
6,6,0.78|
6,7,2.2|
7,0,1.9|
7,1,0.22|
7,2,9.2|
7,3,4.1|
7,4,8.9|
7,5,3.4|
7,6,4.9|
7,7,9.5|
];
constraint_x4_y4=[
0,0,1.3|
0,1,6.6|
0,2,1.1|
0,3,9.2|
0,4,4.2|
0,5,4.4|
0,6,4.5|
0,7,5.6|
1,0,6.9|
1,1,2.8|
1,2,0.85|
1,3,7.6|
1,4,6.9|
1,5,6.1|
1,6,5.1|
1,7,6.1|
2,0,8.3|
2,1,8.8|
2,2,9.8|
2,3,1.3|
2,4,0.84|
2,5,7.8|
2,6,3.4|
2,7,4.3|
3,0,4|
3,1,8.1|
3,2,2.2|
3,3,7.7|
3,4,9.6|
3,5,4.8|
3,6,8.8|
3,7,0.27|
4,0,3.1|
4,1,2.9|
4,2,1.6|
4,3,9.5|
4,4,0.8|
4,5,7.9|
4,6,5.7|
4,7,1.9|
5,0,5.4|
5,1,5.8|
5,2,9.4|
5,3,5.6|
5,4,2.5|
5,5,6|
5,6,1|
5,7,0.33|
6,0,9.1|
6,1,1.8|
6,2,9.3|
6,3,6.4|
6,4,7.1|
6,5,2.4|
6,6,4.6|
6,7,1|
7,0,1.9|
7,1,1.8|
7,2,4.8|
7,3,6|
7,4,5.7|
7,5,4|
7,6,2.5|
7,7,2.5|
];
constraint_x5_y5=[
0,0,0.44|
0,1,7.5|
0,2,5|
0,3,8.3|
0,4,8.4|
0,5,1.2|
0,6,9|
0,7,0.14|
1,0,4.8|
1,1,1|
1,2,2|
1,3,6.4|
1,4,7.7|
1,5,8.1|
1,6,5.4|
1,7,4|
2,0,2.8|
2,1,10|
2,2,8|
2,3,5.1|
2,4,0.62|
2,5,7|
2,6,4.3|
2,7,0.76|
3,0,2.2|
3,1,1.4|
3,2,1.7|
3,3,3|
3,4,4.1|
3,5,6.6|
3,6,5.1|
3,7,1.3|
4,0,3.2|
4,1,9.1|
4,2,1.8|
4,3,6.8|
4,4,8.3|
4,5,7.6|
4,6,1.5|
4,7,8.9|
5,0,8.1|
5,1,7.1|
5,2,9.1|
5,3,2.7|
5,4,8.4|
5,5,6|
5,6,3.1|
5,7,2.5|
6,0,10|
6,1,9|
6,2,0.37|
6,3,9.6|
6,4,5.3|
6,5,6.8|
6,6,6.6|
6,7,6.5|
7,0,0.39|
7,1,3.3|
7,2,9.8|
7,3,9.2|
7,4,5.8|
7,5,2|
7,6,4.6|
7,7,5.6|
];
constraint_x6_y6=[
0,0,3|
0,1,6.1|
0,2,7.5|
0,3,9.5|
0,4,4|
0,5,5.9|
0,6,1.1|
0,7,8.5|
1,0,2.5|
1,1,9.8|
1,2,6.4|
1,3,7.9|
1,4,2.2|
1,5,0.42|
1,6,6.3|
1,7,5.4|
2,0,0.16|
2,1,8.1|
2,2,0.19|
2,3,5|
2,4,8.5|
2,5,0.26|
2,6,6.4|
2,7,7.1|
3,0,1.5|
3,1,4.9|
3,2,9.4|
3,3,6.7|
3,4,1.7|
3,5,6.3|
3,6,7.6|
3,7,4.1|
4,0,4.1|
4,1,1.8|
4,2,3.6|
4,3,4.3|
4,4,1.6|
4,5,7.6|
4,6,0.8|
4,7,2.9|
5,0,1.8|
5,1,8.7|
5,2,2.4|
5,3,10|
5,4,2.5|
5,5,9.8|
5,6,6.1|
5,7,9.6|
6,0,7.8|
6,1,4|
6,2,9.9|
6,3,9.3|
6,4,3.6|
6,5,0.3|
6,6,7.8|
6,7,0.33|
7,0,6.6|
7,1,3.8|
7,2,6.1|
7,3,0.36|
7,4,0.21|
7,5,6.1|
7,6,9.9|
7,7,8.6|
];
constraint_x7_y7=[
0,0,9.1|
0,1,5.5|
0,2,2.9|
0,3,7.3|
0,4,9.8|
0,5,3|
0,6,7.3|
0,7,0.79|
1,0,5.6|
1,1,0.77|
1,2,5.1|
1,3,9.9|
1,4,9|
1,5,5.2|
1,6,4.2|
1,7,3.4|
2,0,6.9|
2,1,5.3|
2,2,1.5|
2,3,1.7|
2,4,1|
2,5,4.5|
2,6,5|
2,7,8.1|
3,0,8.3|
3,1,6.1|
3,2,2|
3,3,3.4|
3,4,3|
3,5,5.1|
3,6,3.7|
3,7,4.3|
4,0,9.3|
4,1,3.3|
4,2,9.3|
4,3,6.2|
4,4,5|
4,5,2.5|
4,6,0.17|
4,7,6.7|
5,0,6.7|
5,1,1|
5,2,7.9|
5,3,4|
5,4,4.4|
5,5,6.2|
5,6,5.9|
5,7,9.3|
6,0,9.9|
6,1,8.8|
6,2,5.2|
6,3,9.9|
6,4,6.8|
6,5,2.8|
6,6,7.7|
6,7,8.3|
7,0,6.1|
7,1,5.3|
7,2,1.5|
7,3,7.8|
7,4,7.4|
7,5,3.4|
7,6,4.2|
7,7,2.7|
];
constraint_x8_y8=[
0,0,7|
0,1,3.3|
0,2,7.8|
0,3,5.1|
0,4,8.4|
0,5,0.84|
0,6,5.7|
0,7,9.1|
1,0,8|
1,1,2.3|
1,2,9.2|
1,3,1.8|
1,4,3.4|
1,5,3.8|
1,6,4|
1,7,2.4|
2,0,4.7|
2,1,1.2|
2,2,3.4|
2,3,1.6|
2,4,1.1|
2,5,9.6|
2,6,1.7|
2,7,6|
3,0,7.2|
3,1,2.5|
3,2,9.9|
3,3,0.53|
3,4,0.29|
3,5,4.5|
3,6,8.6|
3,7,2.4|
4,0,8.5|
4,1,8.6|
4,2,5.3|
4,3,6.8|
4,4,6.8|
4,5,0.53|
4,6,0.8|
4,7,5.7|
5,0,1.7|
5,1,2.5|
5,2,3.6|
5,3,2.7|
5,4,3.9|
5,5,1.4|
5,6,9.6|
5,7,0.21|
6,0,4.3|
6,1,6.6|
6,2,3|
6,3,6|
6,4,9.8|
6,5,4.1|
6,6,2|
6,7,9.9|
7,0,3|
7,1,1.8|
7,2,9.8|
7,3,4.4|
7,4,3.5|
7,5,6.2|
7,6,5.3|
7,7,5.6|
];
initial_distribution_y1=[0.21,0.017,0.017,0.17,0.12,0.17,0.098,0.2];
initial_distribution_y2=[0.081,0.053,0.19,0.23,0.19,0.068,0.14,0.04];
initial_distribution_y3=[0.049,0.13,0.098,0.14,0.25,0.057,0.062,0.21];
initial_distribution_y4=[0.045,0.082,0.17,0.13,0.11,0.2,0.064,0.19];
initial_distribution_y5=[0.065,0.0054,0.14,0.21,0.16,0.19,0.039,0.2];
initial_distribution_y6=[0.071,0.22,0.091,0.18,0.17,0.087,0.13,0.058];
initial_distribution_y7=[0.15,0.11,0.12,0.066,0.15,0.18,0.14,0.085];
initial_distribution_y8=[0.12,0.13,0.14,0.11,0.1,0.017,0.17,0.22];
transition_y1=[
0.16,0.052,0.2,0.12,0.12,0.091,0.073,0.18|
0.12,0.31,0.021,0.25,0.021,0.099,0.035,0.14|
0.21,0.098,0.13,0.16,0.2,0.051,0.12,0.046|
0.2,0.044,0.026,0.13,0.17,0.26,0.08,0.08|
0.01,0.17,0.11,0.059,0.25,0.23,0.13,0.037|
0.19,0.25,0.054,0.12,0.026,0.0041,0.36,0.0095|
0.1,0.13,0.14,0.13,0.14,0.15,0.05,0.15|
0.19,0.18,0.24,0.064,0.013,0.083,0.087,0.14|
];
transition_y2=[
0.22,0.047,0.076,0.1,0.095,0.05,0.27,0.14|
0.13,0.061,0.19,0.031,0.067,0.14,0.19,0.2|
0.14,0.11,0.12,0.18,0.05,0.19,0.17,0.037|
0.079,0.068,0.14,0.16,0.21,0.16,0.019,0.16|
0.21,0.17,0.17,0.13,0.016,0.054,0.12,0.14|
0.12,0.15,0.16,0.15,0.11,0.11,0.09,0.096|
0.14,0.029,0.12,0.11,0.16,0.19,0.19,0.064|
0.21,0.058,0.067,0.085,0.084,0.13,0.27,0.094|
];
transition_y3=[
0.13,0.15,0.2,0.087,0.21,0.051,0.019,0.16|
0.13,0.22,0.097,0.18,0.11,0.0081,0.093,0.16|
0.1,0.14,0.12,0.2,0.17,0.011,0.089,0.17|
0.13,0.18,0.12,0.089,0.073,0.13,0.095,0.19|
0.0081,0.22,0.16,0.076,0.19,0.13,0.2,0.016|
0.078,0.084,0.17,0.15,0.086,0.22,0.056,0.15|
0.21,0.17,0.0048,0.13,0.13,0.068,0.16,0.13|
0.11,0.12,0.062,0.22,0.036,0.096,0.16,0.19|
];
transition_y4=[
0.094,0.26,0.071,0.16,0.26,0.054,0.052,0.045|
0.17,0.035,0.16,0.17,0.15,0.12,0.17,0.027|
0.07,0.1,0.079,0.16,0.17,0.17,0.066,0.18|
0.058,0.046,0.2,0.068,0.21,0.2,0.061,0.16|
0.12,0.11,0.19,0.0076,0.11,0.16,0.14,0.16|
0.08,0.056,0.014,0.16,0.18,0.22,0.076,0.21|
0.036,0.16,0.16,0.074,0.015,0.064,0.27,0.22|
0.028,0.16,0.097,0.18,0.21,0.15,0.17,0.014|
];
transition_y5=[
0.087,0.13,0.11,0.042,0.2,0.021,0.067,0.34|
0.0089,0.11,0.046,0.19,0.21,0.23,0.0057,0.2|
0.034,0.16,0.069,0.2,0.18,0.1,0.15,0.1|
0.14,0.051,0.064,0.18,0.15,0.29,0.075,0.057|
0.18,0.015,0.063,0.18,0.23,0.074,0.21,0.041|
0.056,0.0055,0.18,0.089,0.023,0.21,0.2,0.24|
0.036,0.24,0.01,0.11,0.067,0.16,0.19,0.18|
0.17,0.0065,0.17,0.086,0.15,0.15,0.15,0.11|
];
transition_y6=[
0.042,0.1,0.12,0.2,0.13,0.25,0.036,0.12|
0.079,0.18,0.0064,0.15,0.16,0.054,0.28,0.082|
0.0099,0.17,0.1,0.25,0.11,0.23,0.03,0.098|
0.14,0.18,0.052,0.11,0.19,0.026,0.11,0.2|
0.26,0.021,0.035,0.13,0.2,0.036,0.099,0.22|
0.094,0.0039,0.079,0.12,0.2,0.22,0.1,0.18|
0.19,0.11,0.078,0.2,0.029,0.2,0.0042,0.19|
0.12,0.056,0.21,0.18,0.054,0.17,0.016,0.2|
];
transition_y7=[
0.17,0.11,0.18,0.033,0.096,0.087,0.11,0.21|
0.1,0.043,0.16,0.057,0.11,0.25,0.19,0.083|
0.072,0.065,0.1,0.18,0.086,0.18,0.18,0.13|
0.26,0.14,0.046,0.064,0.032,0.22,0.038,0.2|
0.024,0.2,0.16,0.099,0.2,0.11,0.18,0.035|
0.18,0.091,0.2,0.15,0.055,0.22,0.082,0.015|
0.17,0.18,0.029,0.22,0.05,0.013,0.11,0.22|
0.0028,0.12,0.16,0.1,0.16,0.24,0.08,0.13|
];
transition_y8=[
0.039,0.088,0.031,0.23,0.21,0.029,0.28,0.084|
0.16,0.025,0.15,0.16,0.07,0.097,0.17,0.17|
0.045,0.17,0.15,0.24,0.0051,0.065,0.15,0.18|
0.21,0.15,0.081,0.08,0.13,0.1,0.077,0.17|
0.033,0.2,0.041,0.051,0.21,0.064,0.25,0.15|
0.13,0.083,0.19,0.1,0.12,0.12,0.18,0.08|
0.18,0.2,0.17,0.12,0.15,0.13,0.049,0.0026|
0.13,0.19,0.083,0.11,0.2,0.0077,0.094,0.18|
];
